GLPSOL: GLPK LP/MIP Solver, v4.55
Parameter(s) specified in the command line:
 -m tmp.mod
Reading model section from tmp.mod...
Reading data section from tmp.mod...
3807 lines were read
Generating obj...
Generating kirhoff...
Generating init_charge...
Generating batt_size...
Model has been successfully generated
GLPK Simplex Optimizer, v4.55
2646 rows, 5294 columns, 10858 non-zeros
Preprocessing...
2269 rows, 5209 columns, 10655 non-zeros
Scaling...
 A: min|aij| =  1.000e+00  max|aij| =  1.000e+00  ratio =  1.000e+00
Problem data seem to be well scaled
Constructing initial basis...
Size of triangular part is 1829
      0: obj =   0.000000000e+00  infeas =  1.407e+03 (440)
    500: obj =   2.000000000e+00  infeas =  8.900e+02 (157)
*   937: obj =   1.920000000e+02  infeas =  0.000e+00 (92)
*   969: obj =   1.920000000e+02  infeas =  0.000e+00 (92)
OPTIMAL LP SOLUTION FOUND
Time used:   0.2 secs
Memory used: 10.4 Mb (10882454 bytes)
#OUTPUT:
192
-101 -3 -2 0 0 7 0 7 0 0 -4 -86 0 0 0 21 -42 0 0 0 0 0 -7 0 -1 0 -3 0 0 0 0 0 0 0 0 0 0 0 0 0 0 -2 0 0 0 0 0 0 4 0 0 0 0 0 0 0 0 0 -3 0 0 0 0 -6 0 0 0 0 -3 0 0 0 3 -103 -4 0 0 0 0 0 0 0 0 0 0 0 0 0 0 2 0 0 0 0 0 0 0 0 0 -10 0 0 0 0 0 7 0 0 0 0 0 34 0 0 0 0 0 0 0 0 0 9 0 0 0 0 0 0 0 0 -3 0 0 -1 -1 3 0 0 1 0 9 0 0 -3 1 0 0 -1 0 0 0 0 0 0 0 0 0 0 0 0 0 0 1 0 0 3 0 0 0 0 0 0 0 39 0 -39 0 0 0 3 0 0 0 0 0 0 30 0 0 0 0 0 0 0 0 0 0 -47 0 0 0 0 0 0 0 0 0 0 0 3 0 0 0 0 0 0 0 0 0 0 0 0 0 0 0 0 0 0 0 0 0 0 0 0 0 0 0 0 0 0 0 0 0 0 0 0 -22 0 0 0 0 0 0 0 0 -10 0 0 20 0 0 35 0 0 0 0 0 0 -39 -8 0 0 0 0 0 0 0 0 0 0 0 0 0 0 0 0 0 0 0 0 0 1 0 0 0 0 0 0 0 0 0 0 0 0 -3 0 0 0 1 0 0 0 0 0 0 0 -1 0 0 0 0 0 0 0 0 4 0 1 0 0 0 0 0 0 0 0 0 0 0 0 0 0 0 0 0 0 0 0 0 0 0 0 0 0 0 0 0 0 0 0 0 29 -11 0 0 0 0 0 0 0 0 0 0 0 0 0 0 0 0 0 0 0 0 0 0 10 -46 0 0 0 0 0 0 0 0 0 0 0 0 0 0 0 0 0 0 0 0 0 0 0 0 0 0 0 -3 0 0 0 0 0 0 0 0 0 0 0 0 0 0 0 0 0 0 0 0 0 0 0 0 0 0 0 0 0 0 0 30 0 0 0 0 0 0 0 0 0 0 0 0 0 0 0 0 0 0 0 0 0 0 0 0 0 0 0 0 0 0 0 -7 0 0 -1 0 -9 0 1 0 2 -1 -3 0 0 -3 0 39 -3 0 0 0 0 0 0 0 0 22 0 0 0 -20 -10 32 3 0 0 0 0 0 0 0 0 0 0 0 0 0 -1 0 0 0 4 -5 0 0 0 0 0 -3 0 0 -1 0 0 0 0 0 -29 11 0 0 0 0 0 10 -10 0 0 0 -10 46 0 0 0 0 0 0 0 3 0 0 0 0 0 0 0 0 0 0 0 0 -42 1 11 0 0 0 0 0 0 0 0 0 0 0 0 0 0 0 0 0 0 0 0 0 0 0 0 0 0 0 0 0 0 0 0 0 0 0 0 0 0 0 0 0 0 0 
-101 -3 0 -27 0 7 -12 7 0 0 0 -49 0 -6 4 47 -49 0 3 0 0 0 -37 0 -2 31 -3 0 0 0 0 -2 0 0 -7 0 4 0 0 0 1 0 0 0 0 0 0 0 3 0 0 0 0 0 1 0 0 0 -10 0 0 -5 0 -3 -3 6 0 0 0 0 0 0 3 -103 0 0 4 0 0 0 0 0 0 0 0 0 0 -83 0 0 0 -3 0 0 0 -3 3 0 0 -14 9 -3 0 0 5 -7 0 0 0 0 0 47 0 36 -5 0 0 0 0 0 0 11 0 0 0 0 0 0 0 0 0 0 0 -1 0 27 -5 0 0 0 9 0 0 0 0 0 0 0 0 0 0 6 0 0 3 0 0 3 0 -2 0 0 2 0 0 0 0 0 0 -1 0 0 0 2 0 0 0 -5 0 0 0 -5 -4 0 0 4 -21 0 0 0 0 0 0 0 0 0 0 -33 0 2 0 0 0 0 0 0 0 0 0 0 0 0 0 -4 0 -5 0 0 0 0 0 0 -71 0 0 0 0 0 0 0 0 8 0 0 -12 -9 0 0 0 0 0 0 0 0 0 0 -49 4 0 0 0 0 0 0 0 -14 0 0 3 0 0 48 0 0 0 0 10 -11 0 -31 0 0 0 0 0 0 0 0 0 0 0 2 0 0 0 0 -1 0 0 0 0 -16 0 0 0 9 0 0 0 0 -21 0 0 0 0 0 0 0 1 0 0 0 0 0 0 0 4 2 0 -6 0 -6 0 0 0 3 3 0 0 0 0 6 0 0 0 0 4 0 0 0 0 9 0 0 0 0 0 0 3 0 0 0 0 0 0 -3 0 0 0 0 0 20 -8 0 0 0 0 0 0 0 0 4 0 0 0 0 0 0 -4 0 0 4 2 0 0 -60 -56 0 0 0 0 0 0 0 0 0 0 0 0 0 0 -6 0 2 2 0 0 0 0 0 0 0 0 0 0 0 0 3 0 0 0 0 0 0 0 0 0 0 0 3 0 0 0 0 0 0 0 0 0 -4 0 -9 0 0 -3 0 -21 0 0 0 0 0 0 0 0 0 0 0 0 0 0 0 0 0 0 0 -3 0 5 0 0 4 0 0 0 3 0 0 -37 0 0 1 0 -9 0 0 -9 -4 0 -10 0 0 0 0 2 0 0 5 0 -8 0 -12 0 0 -37 0 -4 4 -3 -22 39 27 0 0 0 0 0 1 0 0 0 -5 0 0 0 -1 4 0 0 4 -4 0 -6 0 0 0 0 -6 -3 0 0 0 2 3 0 -17 8 0 -4 -2 6 0 10 -14 -2 0 0 -10 56 0 0 6 -2 -2 0 0 0 -3 0 0 0 0 0 -3 0 4 0 9 3 0 21 0 0 0 0 0 0 0 3 0 0 0 0 0 0 0 0 0 0 0 0 0 0 0 0 0 0 0 0 0 0 0 0 0 0 0 0 0 0 0 0 0 0 0 0 
-101 -5 -2 -28 -1 6 -36 2 0 0 1 -33 0 -44 0 0 -4 0 0 0 0 0 0 0 0 36 -3 2 0 0 0 0 0 0 0 0 4 0 2 -1 -16 0 0 0 0 0 0 0 10 0 0 0 -11 0 -17 0 0 -8 -1 0 0 0 -1 0 0 -4 0 0 0 -1 0 0 -3 -59 -4 0 0 0 0 0 0 0 0 0 0 0 0 0 0 -3 0 0 0 0 0 0 0 0 -1 -1 0 -4 0 0 0 7 0 0 0 0 0 1 -2 1 -1 0 0 0 -1 0 0 0 0 0 0 0 0 0 0 0 0 -1 0 1 -3 27 0 0 0 0 0 1 0 5 0 0 0 0 0 0 0 0 0 0 0 0 -1 0 0 2 0 0 1 0 0 1 0 0 0 -1 0 0 0 -3 0 -24 0 0 0 -5 0 0 0 0 0 0 0 0 0 0 0 0 0 0 0 3 0 -55 0 0 0 0 0 0 0 0 0 0 0 0 0 0 0 1 0 -1 0 0 0 0 0 0 0 0 0 3 0 0 0 0 0 4 0 0 3 0 -3 0 0 0 0 0 0 0 0 0 -1 0 0 0 0 0 0 0 0 -1 0 0 0 0 0 2 0 0 0 0 -81 0 3 -58 0 0 0 0 0 0 -1 0 0 0 0 0 0 0 0 0 -2 0 0 0 0 3 0 0 0 0 0 0 0 0 0 2 0 0 0 0 0 0 1 0 0 0 0 0 0 0 1 0 0 -4 0 6 0 0 0 10 0 -3 0 0 0 6 0 0 0 0 4 0 0 0 0 0 0 0 0 0 0 0 -3 0 0 0 0 0 0 0 0 0 0 0 0 0 -1 0 0 0 3 0 0 0 0 4 0 0 0 0 -4 0 -6 0 -3 1 0 0 0 0 -3 0 0 0 0 0 0 0 0 0 0 0 0 0 0 -4 0 0 0 0 0 0 0 0 0 0 0 0 0 0 0 0 0 0 0 0 0 0 0 0 0 0 0 0 0 0 0 0 0 0 0 0 0 0 0 0 0 0 0 0 0 0 0 0 0 0 0 0 0 0 0 1 0 0 0 0 4 0 0 0 0 0 0 0 0 4 0 -1 0 4 0 0 -1 0 0 1 1 0 -1 0 0 2 -1 0 -1 0 5 0 -3 0 0 1 0 0 0 3 3 3 1 0 0 0 0 -22 19 27 1 0 0 0 0 2 0 0 0 0 0 -2 0 -1 0 -1 0 34 -31 0 0 4 0 0 0 0 0 0 0 0 0 0 0 0 1 -3 -4 0 6 3 0 -1 0 0 0 0 3 0 0 4 0 0 0 0 0 0 0 0 0 0 -5 5 0 0 0 0 0 -19 3 16 0 0 -1 0 0 -4 0 0 0 0 0 0 0 0 0 0 0 0 0 0 0 0 0 0 0 0 0 0 0 0 0 0 0 0 0 0 0 0 0 0 0 0 0 
-10 0 0 -10 0 0 -10 0 0 0 0 0 0 0 0 0 0 0 0 0 0 0 0 0 0 0 0 0 -12 0 0 0 0 0 0 0 0 0 0 0 0 0 0 0 0 0 0 0 0 0 0 0 0 0 0 0 0 0 0 0 0 0 0 0 0 0 0 0 0 0 0 0 0 0 0 0 0 0 0 0 0 0 0 -2 0 0 0 0 0 0 0 0 0 0 0 0 0 0 0 0 0 0 0 0 0 2 0 0 0 0 0 0 0 0 0 0 0 0 0 0 0 0 0 0 0 0 0 0 0 0 0 0 0 0 0 0 0 0 0 0 0 0 0 0 0 0 0 0 0 0 0 0 0 0 0 0 0 -2 0 0 0 0 0 0 0 0 0 0 0 0 0 0 0 0 0 0 0 0 0 0 0 0 0 0 0 0 0 0 0 0 0 0 0 0 0 0 0 0 0 0 0 0 0 0 0 0 0 0 0 0 0 0 0 0 0 0 0 0 0 0 0 0 0 0 0 0 0 0 0 0 0 0 0 0 0 0 0 0 0 0 0 0 0 0 0 0 0 0 0 0 0 0 0 0 0 0 0 0 0 0 0 0 0 0 0 0 0 0 0 0 0 0 0 0 0 0 0 0 0 0 0 2 0 0 0 0 0 0 0 0 0 0 0 0 0 0 0 0 0 0 0 0 0 0 0 0 0 0 0 0 0 0 0 0 0 0 0 0 0 0 0 2 0 0 -12 0 0 0 0 0 0 0 0 0 0 0 0 0 0 0 0 0 0 0 0 0 0 0 0 0 0 0 0 0 -2 0 0 0 0 0 0 0 0 0 0 0 0 0 0 0 0 0 0 0 0 0 0 0 0 0 0 0 0 0 0 0 0 0 0 0 0 0 0 0 0 0 0 0 0 0 0 0 0 0 0 0 0 0 0 0 0 0 0 0 0 0 0 0 0 0 0 0 0 0 0 0 0 0 0 -2 0 0 0 0 0 0 0 0 0 0 0 0 0 0 0 0 0 0 0 0 0 0 0 0 0 0 0 0 0 0 0 0 0 0 0 0 0 0 0 0 0 0 0 0 -2 0 0 0 0 0 0 0 0 0 0 0 0 0 0 0 0 0 0 0 0 0 0 0 0 0 0 0 0 0 0 0 0 0 0 0 0 0 0 0 0 0 0 0 0 0 0 0 0 0 0 0 0 0 0 0 0 0 0 0 0 0 0 0 0 0 0 0 2 0 0 0 0 0 0 0 0 0 0 0 0 0 0 0 0 0 0 0 0 0 0 0 0 0 0 0 0 0 0 2 0 0 0 0 0 0 0 0 0 0 0 0 0 0 0 0 0 0 0 0 0 0 0 0 0 0 0 0 0 0 0 0 0 0 0 0 0 0 0 0 0 0 0 0 0 0 0 0 0 0 0 
#OUTPUT END
Model has been successfully processed
